p cnf 844 1683              
-3 -5 207 0
-207 209 0
-4 -6 208 0
-208 209 0
-209 -726 0
-43 82 0
-47 82 0
-82 91 0
-44 83 0
-48 83 0
-45 84 0
-49 84 0
-83 -84 87 0
-87 91 0
-91 97 0
-46 85 0
-50 85 0
-85 94 0
-87 94 0
-94 97 0
-97 -726 0
-2 -1 -51 0
51 -53 0
1 2 -52 0
52 -53 0
53 -726 0
-8 -7 -54 0
54 -58 0
-10 -9 -56 0
56 -58 0
58 -726 0
-24 -23 -59 0
59 -67 0
-26 -25 -61 0
61 -67 0
-28 -27 -63 0
63 -67 0
-30 -29 -65 0
65 -67 0
67 -726 0
-32 -31 -68 0
68 -76 0
-34 -33 -70 0
70 -76 0
-36 -35 -72 0
72 -76 0
-38 -37 -74 0
74 -76 0
76 -726 0
-12 -11 -77 0
77 -81 0
-14 -13 -79 0
79 -81 0
81 -726 0
3 -101 0
-16 -15 -98 0
98 -100 0
-15 99 0
-16 99 0
15 16 -99 0
99 -100 0
100 -101 0
-99 -102 0
-3 -102 0
101 102 -103 0
103 -110 0
4 -107 0
-18 -17 -104 0
104 -106 0
-17 105 0
-18 105 0
17 18 -105 0
105 -106 0
106 -107 0
-105 -108 0
-4 -108 0
107 108 -109 0
109 -110 0
110 -726 0
3 -114 0
-40 -39 -111 0
111 -113 0
-39 112 0
-40 112 0
39 40 -112 0
112 -113 0
113 -114 0
-112 -115 0
-3 -115 0
114 115 -116 0
116 -123 0
4 -120 0
-42 -41 -117 0
117 -119 0
-41 118 0
-42 118 0
41 42 -118 0
118 -119 0
119 -120 0
-118 -121 0
-4 -121 0
120 121 -122 0
122 -123 0
123 -726 0
5 -127 0
-20 -19 -124 0
124 -126 0
-19 125 0
-20 125 0
19 20 -125 0
125 -126 0
126 -127 0
-125 -128 0
-5 -128 0
127 128 -129 0
129 -136 0
6 -133 0
-22 -21 -130 0
130 -132 0
-21 131 0
-22 131 0
21 22 -131 0
131 -132 0
132 -133 0
-131 -134 0
-6 -134 0
133 134 -135 0
135 -136 0
136 -726 0
5 -140 0
-44 -43 -137 0
137 -139 0
-43 138 0
-44 138 0
43 44 -138 0
138 -139 0
139 -140 0
-138 -141 0
-5 -141 0
140 141 -142 0
142 -149 0
6 -146 0
-46 -45 -143 0
143 -145 0
-45 144 0
-46 144 0
45 46 -144 0
144 -145 0
145 -146 0
-144 -147 0
-6 -147 0
146 147 -148 0
148 -149 0
149 -726 0
5 -153 0
-48 -47 -150 0
150 -152 0
-47 151 0
-48 151 0
47 48 -151 0
151 -152 0
152 -153 0
-151 -154 0
-5 -154 0
153 154 -155 0
155 -162 0
6 -159 0
-50 -49 -156 0
156 -158 0
-49 157 0
-50 157 0
49 50 -157 0
157 -158 0
158 -159 0
-157 -160 0
-6 -160 0
159 160 -161 0
161 -162 0
162 -726 0
15 164 0
-17 164 0
-15 17 -164 0
16 165 0
-18 165 0
-16 18 -165 0
-164 -165 166 0
17 167 0
-15 167 0
18 168 0
-16 168 0
-167 -168 169 0
-166 -169 170 0
39 171 0
-41 171 0
-39 41 -171 0
40 172 0
-42 172 0
-40 42 -172 0
-171 -172 173 0
41 174 0
-39 174 0
42 175 0
-40 175 0
-174 -175 176 0
-173 -176 177 0
-170 -177 178 0
-4 -3 -163 0
-178 163 -179 0
179 -726 0
19 181 0
-21 181 0
-19 21 -181 0
20 182 0
-22 182 0
-20 22 -182 0
-181 -182 183 0
21 184 0
-19 184 0
22 185 0
-20 185 0
-184 -185 186 0
-183 -186 187 0
43 188 0
-45 188 0
44 189 0
-46 189 0
-188 -189 190 0
45 191 0
-43 191 0
46 192 0
-44 192 0
-191 -192 193 0
-190 -193 194 0
47 195 0
-49 195 0
48 196 0
-50 196 0
-195 -196 197 0
49 198 0
-47 198 0
50 199 0
-48 199 0
-198 -199 200 0
-197 -200 201 0
-187 -194 -201 202 0
-6 -5 -180 0
-202 180 -203 0
203 -726 0
3 5 -204 0
204 -206 0
4 6 -205 0
205 -206 0
206 -726 0
8 -218 0
47 -218 0
-8 -47 218 0
-218 222 0
10 -220 0
48 -220 0
-10 -48 220 0
-220 222 0
218 220 -222 0
-222 -273 0
7 -217 0
47 -217 0
-7 -47 217 0
-217 221 0
9 -219 0
48 -219 0
-9 -48 219 0
-219 221 0
217 219 -221 0
221 -273 0
222 -221 273 0
-273 -282 0
8 -211 0
43 -211 0
-8 -43 211 0
-211 215 0
10 -213 0
44 -213 0
-10 -44 213 0
-213 215 0
211 213 -215 0
-215 -272 0
7 -210 0
43 -210 0
-7 -43 210 0
-210 214 0
9 -212 0
44 -212 0
-9 -44 212 0
-212 214 0
210 212 -214 0
214 -272 0
215 -214 272 0
-272 -282 0
26 -227 0
43 -227 0
-26 -43 227 0
-227 235 0
30 -231 0
44 -231 0
-30 -44 231 0
-231 235 0
227 231 -235 0
235 239 0
25 -226 0
43 -226 0
-25 -43 226 0
-226 234 0
29 -230 0
44 -230 0
-29 -44 230 0
-230 234 0
226 230 -234 0
234 239 0
-235 -234 -239 0
239 -241 0
-234 240 0
-235 240 0
234 235 -240 0
240 -241 0
-239 -240 241 0
241 274 0
24 -225 0
43 -225 0
-24 -43 225 0
-225 233 0
28 -229 0
44 -229 0
-28 -44 229 0
-229 233 0
225 229 -233 0
233 236 0
23 -224 0
43 -224 0
-23 -43 224 0
-224 232 0
27 -228 0
44 -228 0
-27 -44 228 0
-228 232 0
224 228 -232 0
232 236 0
-233 -232 -236 0
236 -238 0
-232 237 0
-233 237 0
232 233 -237 0
237 -238 0
-236 -237 238 0
238 274 0
-241 -238 -274 0
-274 276 0
26 -246 0
47 -246 0
-26 -47 246 0
-246 254 0
30 -250 0
48 -250 0
-30 -48 250 0
-250 254 0
246 250 -254 0
254 258 0
25 -245 0
47 -245 0
-25 -47 245 0
-245 253 0
29 -249 0
48 -249 0
-29 -48 249 0
-249 253 0
245 249 -253 0
253 258 0
-254 -253 -258 0
258 -260 0
-253 259 0
-254 259 0
253 254 -259 0
259 -260 0
-258 -259 260 0
260 275 0
24 -244 0
47 -244 0
-24 -47 244 0
-244 252 0
28 -248 0
48 -248 0
-28 -48 248 0
-248 252 0
244 248 -252 0
252 255 0
23 -243 0
47 -243 0
-23 -47 243 0
-243 251 0
27 -247 0
48 -247 0
-27 -48 247 0
-247 251 0
243 247 -251 0
251 255 0
-252 -251 -255 0
255 -257 0
-251 256 0
-252 256 0
251 252 -256 0
256 -257 0
-255 -256 257 0
257 275 0
-260 -257 -275 0
-275 276 0
274 275 -276 0
-276 -280 0
235 -263 0
254 -263 0
-235 -254 263 0
263 -280 0
276 -263 280 0
-280 -281 0
-276 -278 0
233 -262 0
252 -262 0
-233 -252 262 0
262 -278 0
276 -262 278 0
-278 -281 0
280 278 281 0
281 -282 0
273 272 -281 282 0
-282 -7 -283 0
283 -285 0
-214 -216 0
215 -216 0
214 -215 216 0
216 -271 0
-221 -223 0
222 -223 0
221 -222 223 0
223 -271 0
238 -242 0
241 -242 0
-238 -241 242 0
242 -267 0
257 -261 0
260 -261 0
-257 -260 261 0
261 -267 0
-262 -266 0
-232 264 0
-251 264 0
232 251 -264 0
264 -266 0
262 -264 266 0
266 -267 0
-242 -261 -266 267 0
267 -270 0
242 -269 0
261 -269 0
-263 -268 0
-234 265 0
-253 265 0
234 253 -265 0
265 -268 0
263 -265 268 0
268 -269 0
-242 -261 -268 269 0
269 -270 0
-267 -269 270 0
270 -271 0
-216 -223 -270 271 0
-8 271 -284 0
284 -285 0
285 -289 0
7 282 -286 0
286 -288 0
-271 8 -287 0
287 -288 0
288 -289 0
-5 289 -290 0
290 -372 0
8 -299 0
49 -299 0
-8 -49 299 0
-299 303 0
10 -301 0
50 -301 0
-10 -50 301 0
-301 303 0
299 301 -303 0
-303 -354 0
7 -298 0
49 -298 0
-7 -49 298 0
-298 302 0
9 -300 0
50 -300 0
-9 -50 300 0
-300 302 0
298 300 -302 0
302 -354 0
303 -302 354 0
-354 -363 0
8 -292 0
45 -292 0
-8 -45 292 0
-292 296 0
10 -294 0
46 -294 0
-10 -46 294 0
-294 296 0
292 294 -296 0
-296 -353 0
7 -291 0
45 -291 0
-7 -45 291 0
-291 295 0
9 -293 0
46 -293 0
-9 -46 293 0
-293 295 0
291 293 -295 0
295 -353 0
296 -295 353 0
-353 -363 0
26 -308 0
45 -308 0
-26 -45 308 0
-308 316 0
30 -312 0
46 -312 0
-30 -46 312 0
-312 316 0
308 312 -316 0
316 320 0
25 -307 0
45 -307 0
-25 -45 307 0
-307 315 0
29 -311 0
46 -311 0
-29 -46 311 0
-311 315 0
307 311 -315 0
315 320 0
-316 -315 -320 0
320 -322 0
-315 321 0
-316 321 0
315 316 -321 0
321 -322 0
-320 -321 322 0
322 355 0
24 -306 0
45 -306 0
-24 -45 306 0
-306 314 0
28 -310 0
46 -310 0
-28 -46 310 0
-310 314 0
306 310 -314 0
314 317 0
23 -305 0
45 -305 0
-23 -45 305 0
-305 313 0
27 -309 0
46 -309 0
-27 -46 309 0
-309 313 0
305 309 -313 0
313 317 0
-314 -313 -317 0
317 -319 0
-313 318 0
-314 318 0
313 314 -318 0
318 -319 0
-317 -318 319 0
319 355 0
-322 -319 -355 0
-355 357 0
26 -327 0
49 -327 0
-26 -49 327 0
-327 335 0
30 -331 0
50 -331 0
-30 -50 331 0
-331 335 0
327 331 -335 0
335 339 0
25 -326 0
49 -326 0
-25 -49 326 0
-326 334 0
29 -330 0
50 -330 0
-29 -50 330 0
-330 334 0
326 330 -334 0
334 339 0
-335 -334 -339 0
339 -341 0
-334 340 0
-335 340 0
334 335 -340 0
340 -341 0
-339 -340 341 0
341 356 0
24 -325 0
49 -325 0
-24 -49 325 0
-325 333 0
28 -329 0
50 -329 0
-28 -50 329 0
-329 333 0
325 329 -333 0
333 336 0
23 -324 0
49 -324 0
-23 -49 324 0
-324 332 0
27 -328 0
50 -328 0
-27 -50 328 0
-328 332 0
324 328 -332 0
332 336 0
-333 -332 -336 0
336 -338 0
-332 337 0
-333 337 0
332 333 -337 0
337 -338 0
-336 -337 338 0
338 356 0
-341 -338 -356 0
-356 357 0
355 356 -357 0
-357 -361 0
316 -344 0
335 -344 0
-316 -335 344 0
344 -361 0
357 -344 361 0
-361 -362 0
-357 -359 0
314 -343 0
333 -343 0
-314 -333 343 0
343 -359 0
357 -343 359 0
-359 -362 0
361 359 362 0
362 -363 0
354 353 -362 363 0
-363 -9 -364 0
364 -366 0
-295 -297 0
296 -297 0
295 -296 297 0
297 -352 0
-302 -304 0
303 -304 0
302 -303 304 0
304 -352 0
319 -323 0
322 -323 0
-319 -322 323 0
323 -348 0
338 -342 0
341 -342 0
-338 -341 342 0
342 -348 0
-343 -347 0
-313 345 0
-332 345 0
313 332 -345 0
345 -347 0
343 -345 347 0
347 -348 0
-323 -342 -347 348 0
348 -351 0
323 -350 0
342 -350 0
-344 -349 0
-315 346 0
-334 346 0
315 334 -346 0
346 -349 0
344 -346 349 0
349 -350 0
-323 -342 -349 350 0
350 -351 0
-348 -350 351 0
351 -352 0
-297 -304 -351 352 0
-10 352 -365 0
365 -366 0
366 -370 0
9 363 -367 0
367 -369 0
-352 10 -368 0
368 -369 0
369 -370 0
-6 370 -371 0
371 -372 0
372 -726 0
-276 -377 0
232 -375 0
251 -375 0
-232 -251 375 0
375 -377 0
276 -375 377 0
-23 377 -381 0
381 -385 0
-276 -378 0
-233 373 0
-252 373 0
233 252 -373 0
373 -378 0
276 -373 378 0
-24 378 -382 0
382 -385 0
-276 -379 0
234 -376 0
253 -376 0
-234 -253 376 0
376 -379 0
276 -376 379 0
-25 379 -383 0
383 -385 0
-276 -380 0
-235 374 0
-254 374 0
235 254 -374 0
374 -380 0
276 -374 380 0
-26 380 -384 0
384 -385 0
385 -391 0
-377 23 -386 0
386 -390 0
-378 24 -387 0
387 -390 0
-379 25 -388 0
388 -390 0
-380 26 -389 0
389 -390 0
390 -391 0
-5 391 -392 0
392 -413 0
-357 -397 0
313 -395 0
332 -395 0
-313 -332 395 0
395 -397 0
357 -395 397 0
-27 397 -401 0
401 -405 0
-357 -398 0
-314 393 0
-333 393 0
314 333 -393 0
393 -398 0
357 -393 398 0
-28 398 -402 0
402 -405 0
-357 -399 0
315 -396 0
334 -396 0
-315 -334 396 0
396 -399 0
357 -396 399 0
-29 399 -403 0
403 -405 0
-357 -400 0
-316 394 0
-335 394 0
316 335 -394 0
394 -400 0
357 -394 400 0
-30 400 -404 0
404 -405 0
405 -411 0
-397 27 -406 0
406 -410 0
-398 28 -407 0
407 -410 0
-399 29 -408 0
408 -410 0
-400 30 -409 0
409 -410 0
410 -411 0
-6 411 -412 0
412 -413 0
413 -726 0
-39 -23 -414 0
414 -418 0
-24 39 -415 0
415 -418 0
-40 -25 -416 0
416 -418 0
-26 40 -417 0
417 -418 0
418 -424 0
23 39 -419 0
419 -423 0
-39 24 -420 0
420 -423 0
25 40 -421 0
421 -423 0
-40 26 -422 0
422 -423 0
423 -424 0
-3 424 -425 0
425 -438 0
-41 -27 -426 0
426 -430 0
-28 41 -427 0
427 -430 0
-42 -29 -428 0
428 -430 0
-30 42 -429 0
429 -430 0
430 -436 0
27 41 -431 0
431 -435 0
-41 28 -432 0
432 -435 0
29 42 -433 0
433 -435 0
-42 30 -434 0
434 -435 0
435 -436 0
-4 436 -437 0
437 -438 0
438 -726 0
-7 -439 0
8 -439 0
-3 439 -440 0
440 -443 0
-9 -441 0
10 -441 0
-4 441 -442 0
442 -443 0
443 -726 0
237 -480 0
-232 -444 0
233 -444 0
232 -233 444 0
-444 -474 0
-251 -457 0
252 -457 0
251 -252 457 0
-457 -471 0
256 -471 0
457 -256 471 0
471 -474 0
444 -471 474 0
474 -480 0
-237 -474 480 0
-31 480 -482 0
482 -484 0
31 -445 0
43 -445 0
-31 -43 445 0
-445 453 0
35 -449 0
44 -449 0
-35 -44 449 0
-449 453 0
445 449 -453 0
256 -472 0
457 -470 0
31 -458 0
47 -458 0
-31 -47 458 0
-458 466 0
35 -462 0
48 -462 0
-35 -48 462 0
-462 466 0
458 462 -466 0
466 -470 0
-457 -466 470 0
470 -472 0
-256 -470 472 0
-444 453 -473 0
444 472 -473 0
453 472 -473 0
-444 -453 473 0
444 -472 473 0
-453 -472 473 0
453 -479 0
453 475 0
-472 475 0
-453 472 -475 0
475 -478 0
-471 -477 0
472 476 0
-453 476 0
-472 453 -476 0
476 -477 0
471 -476 477 0
477 -478 0
-475 -477 478 0
478 -479 0
-453 -478 479 0
-237 473 -481 0
237 479 -481 0
473 479 -481 0
-237 -473 481 0
237 -479 481 0
-473 -479 481 0
-32 481 -483 0
483 -484 0
484 -488 0
-480 31 -485 0
485 -487 0
-481 32 -486 0
486 -487 0
487 -488 0
-5 488 -489 0
489 -580 0
318 -526 0
-313 -490 0
314 -490 0
313 -314 490 0
-490 -520 0
-332 -503 0
333 -503 0
332 -333 503 0
-503 -517 0
337 -517 0
503 -337 517 0
517 -520 0
490 -517 520 0
520 -526 0
-318 -520 526 0
-35 526 -528 0
528 -530 0
31 -491 0
45 -491 0
-31 -45 491 0
-491 499 0
35 -495 0
46 -495 0
-35 -46 495 0
-495 499 0
491 495 -499 0
337 -518 0
503 -516 0
31 -504 0
49 -504 0
-31 -49 504 0
-504 512 0
35 -508 0
50 -508 0
-35 -50 508 0
-508 512 0
504 508 -512 0
512 -516 0
-503 -512 516 0
516 -518 0
-337 -516 518 0
-490 499 -519 0
490 518 -519 0
499 518 -519 0
-490 -499 519 0
490 -518 519 0
-499 -518 519 0
499 -525 0
499 521 0
-518 521 0
-499 518 -521 0
521 -524 0
-517 -523 0
518 522 0
-499 522 0
-518 499 -522 0
522 -523 0
517 -522 523 0
523 -524 0
-521 -523 524 0
524 -525 0
-499 -524 525 0
-318 519 -527 0
318 525 -527 0
519 525 -527 0
-318 -519 527 0
318 -525 527 0
-519 -525 527 0
-36 527 -529 0
529 -530 0
530 -534 0
-526 35 -531 0
531 -533 0
-527 36 -532 0
532 -533 0
533 -534 0
-6 534 -535 0
535 -580 0
240 -548 0
-234 -536 0
235 -536 0
234 -235 536 0
-536 -542 0
-253 -537 0
254 -537 0
253 -254 537 0
-537 -539 0
259 -539 0
537 -259 539 0
539 -542 0
536 -539 542 0
542 -548 0
-240 -542 548 0
-33 548 -550 0
550 -552 0
33 -447 0
43 -447 0
-33 -43 447 0
-447 455 0
37 -451 0
44 -451 0
-37 -44 451 0
-451 455 0
447 451 -455 0
259 -540 0
33 -460 0
47 -460 0
-33 -47 460 0
-460 468 0
37 -464 0
48 -464 0
-37 -48 464 0
-464 468 0
460 464 -468 0
468 -538 0
537 -538 0
-468 -537 538 0
538 -540 0
-259 -538 540 0
-536 455 -541 0
536 540 -541 0
455 540 -541 0
-536 -455 541 0
536 -540 541 0
-455 -540 541 0
455 -547 0
455 543 0
-540 543 0
-455 540 -543 0
543 -546 0
-539 -545 0
540 544 0
-455 544 0
-540 455 -544 0
544 -545 0
539 -544 545 0
545 -546 0
-543 -545 546 0
546 -547 0
-455 -546 547 0
-240 541 -549 0
240 547 -549 0
541 547 -549 0
-240 -541 549 0
240 -547 549 0
-541 -547 549 0
-34 549 -551 0
551 -552 0
552 -556 0
-548 33 -553 0
553 -555 0
-549 34 -554 0
554 -555 0
555 -556 0
-5 556 -557 0
557 -580 0
321 -570 0
-315 -558 0
316 -558 0
315 -316 558 0
-558 -564 0
-334 -559 0
335 -559 0
334 -335 559 0
-559 -561 0
340 -561 0
559 -340 561 0
561 -564 0
558 -561 564 0
564 -570 0
-321 -564 570 0
-37 570 -572 0
572 -574 0
33 -493 0
45 -493 0
-33 -45 493 0
-493 501 0
37 -497 0
46 -497 0
-37 -46 497 0
-497 501 0
493 497 -501 0
340 -562 0
33 -506 0
49 -506 0
-33 -49 506 0
-506 514 0
37 -510 0
50 -510 0
-37 -50 510 0
-510 514 0
506 510 -514 0
514 -560 0
559 -560 0
-514 -559 560 0
560 -562 0
-340 -560 562 0
-558 501 -563 0
558 562 -563 0
501 562 -563 0
-558 -501 563 0
558 -562 563 0
-501 -562 563 0
501 -569 0
501 565 0
-562 565 0
-501 562 -565 0
565 -568 0
-561 -567 0
562 566 0
-501 566 0
-562 501 -566 0
566 -567 0
561 -566 567 0
567 -568 0
-565 -567 568 0
568 -569 0
-501 -568 569 0
-321 563 -571 0
321 569 -571 0
563 569 -571 0
-321 -563 571 0
321 -569 571 0
-563 -569 571 0
-38 571 -573 0
573 -574 0
574 -578 0
-570 37 -575 0
575 -577 0
-571 38 -576 0
576 -577 0
577 -578 0
-6 578 -579 0
579 -580 0
580 -726 0
-32 -581 0
31 -581 0
-3 581 -582 0
582 -589 0
-36 -583 0
35 -583 0
-4 583 -584 0
584 -589 0
-34 -585 0
33 -585 0
-3 585 -586 0
586 -589 0
-38 -587 0
37 -587 0
-4 587 -588 0
588 -589 0
589 -726 0
-11 -623 0
12 -591 0
43 -591 0
-12 -43 591 0
-591 595 0
14 -593 0
44 -593 0
-14 -44 593 0
-593 595 0
591 593 -595 0
595 -605 0
11 -596 0
47 -596 0
-11 -47 596 0
-596 600 0
13 -598 0
48 -598 0
-13 -48 598 0
-598 600 0
596 598 -600 0
600 -605 0
-595 -600 605 0
-605 607 0
11 -590 0
43 -590 0
-11 -43 590 0
-590 594 0
13 -592 0
44 -592 0
-13 -44 592 0
-592 594 0
590 592 -594 0
594 -603 0
-600 602 0
12 -597 0
47 -597 0
-12 -47 597 0
-597 601 0
14 -599 0
48 -599 0
-14 -48 599 0
-599 601 0
597 599 -601 0
-601 602 0
600 601 -602 0
602 -603 0
-594 -602 603 0
-603 606 0
595 -604 0
601 -604 0
-595 -601 604 0
-604 606 0
603 604 -606 0
-606 607 0
605 606 -607 0
-605 -608 0
606 -608 0
605 -606 608 0
-608 600 -609 0
608 594 -609 0
600 594 -609 0
-608 -600 609 0
608 -594 609 0
-600 -594 609 0
600 -618 0
600 611 0
-594 611 0
-600 594 -611 0
611 -613 0
601 612 0
-595 612 0
-601 595 -612 0
612 -613 0
-611 -612 613 0
613 -617 0
594 614 0
-600 614 0
-594 600 -614 0
614 -616 0
595 615 0
-601 615 0
-595 601 -615 0
615 -616 0
-614 -615 616 0
616 -617 0
-613 -616 617 0
617 -618 0
-600 -617 618 0
-607 609 -620 0
607 618 -620 0
609 618 -620 0
-607 -609 620 0
607 -618 620 0
-609 -618 620 0
-12 620 -622 0
622 -623 0
623 -625 0
-620 12 -624 0
624 -625 0
-5 625 -626 0
626 -664 0
-13 -660 0
12 -628 0
45 -628 0
-12 -45 628 0
-628 632 0
14 -630 0
46 -630 0
-14 -46 630 0
-630 632 0
628 630 -632 0
632 -642 0
11 -633 0
49 -633 0
-11 -49 633 0
-633 637 0
13 -635 0
50 -635 0
-13 -50 635 0
-635 637 0
633 635 -637 0
637 -642 0
-632 -637 642 0
-642 644 0
11 -627 0
45 -627 0
-11 -45 627 0
-627 631 0
13 -629 0
46 -629 0
-13 -46 629 0
-629 631 0
627 629 -631 0
631 -640 0
-637 639 0
12 -634 0
49 -634 0
-12 -49 634 0
-634 638 0
14 -636 0
50 -636 0
-14 -50 636 0
-636 638 0
634 636 -638 0
-638 639 0
637 638 -639 0
639 -640 0
-631 -639 640 0
-640 643 0
632 -641 0
638 -641 0
-632 -638 641 0
-641 643 0
640 641 -643 0
-643 644 0
642 643 -644 0
-642 -645 0
643 -645 0
642 -643 645 0
-645 637 -646 0
645 631 -646 0
637 631 -646 0
-645 -637 646 0
645 -631 646 0
-637 -631 646 0
637 -655 0
637 648 0
-631 648 0
-637 631 -648 0
648 -650 0
638 649 0
-632 649 0
-638 632 -649 0
649 -650 0
-648 -649 650 0
650 -654 0
631 651 0
-637 651 0
-631 637 -651 0
651 -653 0
632 652 0
-638 652 0
-632 638 -652 0
652 -653 0
-651 -652 653 0
653 -654 0
-650 -653 654 0
654 -655 0
-637 -654 655 0
-644 646 -657 0
644 655 -657 0
646 655 -657 0
-644 -646 657 0
644 -655 657 0
-646 -655 657 0
-14 657 -659 0
659 -660 0
660 -662 0
-657 14 -661 0
661 -662 0
-6 662 -663 0
663 -664 0
664 -726 0
-12 -665 0
11 -665 0
-3 665 -666 0
666 -669 0
-14 -667 0
13 -667 0
-4 667 -668 0
668 -669 0
669 -726 0
-1 -7 670 0
-670 674 0
-2 -9 672 0
-672 674 0
-674 -676 0
1 -671 0
8 -671 0
2 -673 0
10 -673 0
671 673 -675 0
675 -676 0
676 -726 0
52 -703 0
1 -691 0
32 -691 0
2 -695 0
36 -695 0
691 695 -699 0
699 -703 0
703 -712 0
1 -704 0
11 -704 0
2 -706 0
13 -706 0
704 706 -708 0
708 -712 0
52 -702 0
1 -690 0
31 -690 0
2 -694 0
35 -694 0
690 694 -698 0
698 -702 0
702 -711 0
1 -705 0
12 -705 0
2 -707 0
14 -707 0
705 707 -709 0
709 -711 0
712 711 714 0
-1 -24 678 0
-678 686 0
-2 -28 682 0
-682 686 0
-686 -689 0
1 -677 0
23 -677 0
2 -681 0
27 -681 0
677 681 -685 0
685 -689 0
-714 689 -715 0
715 -725 0
708 -721 0
52 -718 0
1 -693 0
34 -693 0
2 -697 0
38 -697 0
693 697 -701 0
701 -718 0
718 -721 0
709 -720 0
52 -717 0
1 -692 0
33 -692 0
2 -696 0
37 -696 0
692 696 -700 0
700 -717 0
717 -720 0
721 720 723 0
-1 -26 680 0
-680 688 0
-2 -30 684 0
-684 688 0
-688 -716 0
1 -679 0
25 -679 0
2 -683 0
29 -683 0
679 683 -687 0
687 -716 0
-723 716 -724 0
724 -725 0
725 -726 0
-39 40 -727 0
727 -765 0
-39 -40 728 0
39 40 728 0
-40 40 728 0
-41 42 -729 0
-728 729 -730 0
730 -765 0
-41 -42 731 0
41 42 731 0
-42 42 731 0
-728 -731 732 0
-23 25 -733 0
-732 733 -734 0
734 -765 0
-23 -25 735 0
23 25 735 0
-25 25 735 0
-732 -735 736 0
-24 26 -737 0
-736 737 -738 0
738 -765 0
-24 -26 739 0
24 26 739 0
-26 26 739 0
-736 -739 740 0
-27 29 -741 0
-740 741 -742 0
742 -765 0
-27 -29 743 0
27 29 743 0
-29 29 743 0
-740 -743 744 0
-28 30 -745 0
-744 745 -746 0
746 -765 0
-28 -30 747 0
28 30 747 0
-30 30 747 0
-744 -747 748 0
-31 33 -749 0
-748 749 -750 0
750 -765 0
-31 -33 751 0
31 33 751 0
-33 33 751 0
-748 -751 752 0
-32 34 -753 0
-752 753 -754 0
754 -765 0
-32 -34 755 0
32 34 755 0
-34 34 755 0
-752 -755 756 0
-35 37 -757 0
-756 757 -758 0
758 -765 0
-35 -37 759 0
35 37 759 0
-37 37 759 0
-756 -759 760 0
-36 38 -761 0
-760 761 -762 0
762 -765 0
765 -843 0
-1 2 -766 0
766 -842 0
-1 -2 767 0
1 2 767 0
-2 2 767 0
-3 4 -768 0
-767 768 -769 0
769 -842 0
-3 -4 770 0
3 4 770 0
-4 4 770 0
-767 -770 771 0
-5 6 -772 0
-771 772 -773 0
773 -842 0
-5 -6 774 0
5 6 774 0
-6 6 774 0
-771 -774 775 0
-775 164 -776 0
776 -842 0
-15 -17 777 0
15 17 777 0
-17 17 777 0
-775 -777 778 0
-778 165 -779 0
779 -842 0
-16 -18 780 0
16 18 780 0
-18 18 780 0
-778 -780 781 0
-781 171 -782 0
782 -842 0
-39 -41 783 0
39 41 783 0
-41 41 783 0
-781 -783 784 0
-784 172 -785 0
785 -842 0
-40 -42 786 0
40 42 786 0
-42 42 786 0
-784 -786 787 0
-787 181 -788 0
788 -842 0
-19 -21 789 0
19 21 789 0
-21 21 789 0
-787 -789 790 0
-790 182 -791 0
791 -842 0
-20 -22 792 0
20 22 792 0
-22 22 792 0
-790 -792 793 0
-43 46 -794 0
-793 794 -795 0
795 -842 0
-43 -46 796 0
43 46 796 0
-46 46 796 0
-793 -796 797 0
-44 45 -798 0
-797 798 -799 0
799 -842 0
-44 -45 800 0
44 45 800 0
-45 45 800 0
-797 -800 801 0
-47 50 -802 0
-801 802 -803 0
803 -842 0
-47 -50 804 0
47 50 804 0
-50 50 804 0
-801 -804 805 0
-48 49 -806 0
-805 806 -807 0
807 -842 0
-48 -49 808 0
48 49 808 0
-49 49 808 0
-805 -808 809 0
-7 9 -810 0
-809 810 -811 0
811 -842 0
-7 -9 812 0
7 9 812 0
-9 9 812 0
-809 -812 813 0
-8 10 -814 0
-813 814 -815 0
815 -842 0
-8 -10 816 0
8 10 816 0
-10 10 816 0
-813 -816 817 0
-11 13 -818 0
-817 818 -819 0
819 -842 0
-11 -13 820 0
11 13 820 0
-13 13 820 0
-817 -820 821 0
-12 14 -822 0
-821 822 -823 0
823 -842 0
-12 -14 824 0
12 14 824 0
-14 14 824 0
-821 -824 825 0
-23 27 -826 0
-825 826 -827 0
827 -842 0
-23 -27 828 0
23 27 828 0
-27 27 828 0
-825 -828 829 0
-24 28 -830 0
-829 830 -831 0
831 -842 0
-24 -28 832 0
24 28 832 0
-28 28 832 0
-829 -832 833 0
-25 29 -834 0
-833 834 -835 0
835 -842 0
-25 -29 836 0
25 29 836 0
-29 29 836 0
-833 -836 837 0
-26 30 -838 0
-837 838 -839 0
839 -842 0
842 -843 0
726 0
843 0
